34 34
21
3 3   21 6 
3 4   0 22
3 5   6 10
3 6   21 0 
3 7   6 27
3 8   0 26
3 9   24 25
3 10  6 0 
3 11  21 23
3 12  6 15
3 13  3 21
3 14  21 9 
3 21  3 0 
3 22  0 0 
3 25  24 0 
3 34  27 0 
4 4   30 11
4 5   30 15
4 11  30 0 
4 14  30 20
12 34  9 0 
